StudentsNr = 10;
InstructorsNr = 60;
DaysNr = 1;
SlotsPerDay = 40;
AvailabilitySlotsLenght = 5;
RoomNr = 1;
ProgrammNr = 2;
DegreeNr = 2;
RolesNr = 1;
CoursesNr = 7;
InstructorsProgramm = [{2}, {1}, {1}, {2}, {1}, {2}, {2}, {1, 2}, {2}, {2}, {2}, {1, 2}, {2}, {2}, {1}, {1, 2}, {1}, {2}, {1}, {1}, {1}, {1, 2}, {2}, {1}, {2}, {1}, {1, 2}, {1}, {1}, {2}, {1, 2}, {2}, {2}, {2}, {1}, {1}, {2}, {2}, {1}, {2}, {1}, {1}, {1}, {1}, {2}, {2}, {1, 2}, {2}, {1, 2}, {2}, {1}, {2}, {1, 2}, {2}, {1, 2}, {2}, {1}, {1, 2}, {1, 2}, {1}];
InstructorRolesPerProgramm = [|{5, 15, 17, 19, 20, 21, 22, 24, 26, 31, 35, 43, 47, 49, 55, 57, 59, 60}|{4, 9, 10, 13, 22, 23, 25, 30, 31, 34, 37, 46, 47, 49, 50, 54, 55, 56, 59}|];
InstructorsAvailability = [|1, 1, 1, 1, 0, 1, 1, 1, |0, 1, 0, 1, 1, 1, 1, 1, |0, 0, 0, 0, 1, 1, 0, 1, |0, 0, 1, 1, 1, 1, 0, 0, |0, 1, 1, 1, 1, 1, 1, 1, |0, 0, 1, 1, 1, 1, 1, 0, |1, 1, 1, 1, 1, 1, 1, 1, |0, 1, 1, 1, 1, 1, 1, 0, |0, 0, 0, 1, 1, 1, 0, 1, |1, 1, 1, 1, 1, 1, 0, 1, |0, 1, 1, 1, 1, 1, 1, 1, |0, 1, 1, 1, 1, 1, 1, 1, |1, 1, 1, 1, 1, 1, 1, 1, |1, 0, 1, 1, 1, 1, 1, 0, |0, 1, 1, 1, 1, 1, 1, 1, |1, 1, 1, 1, 1, 1, 1, 1, |0, 0, 1, 1, 1, 1, 1, 1, |1, 1, 0, 1, 1, 1, 1, 1, |1, 1, 1, 1, 1, 1, 0, 0, |0, 0, 1, 1, 1, 1, 1, 1, |0, 1, 1, 1, 1, 1, 1, 1, |0, 0, 1, 1, 1, 0, 0, 0, |0, 1, 1, 1, 1, 1, 1, 1, |0, 1, 1, 0, 0, 0, 1, 1, |0, 1, 1, 1, 1, 1, 1, 1, |1, 1, 1, 1, 1, 1, 0, 1, |0, 1, 1, 1, 1, 1, 0, 1, |1, 1, 1, 1, 1, 1, 1, 1, |1, 1, 1, 1, 1, 1, 0, 0, |1, 0, 1, 1, 1, 1, 1, 1, |0, 1, 1, 1, 1, 1, 1, 1, |0, 1, 1, 1, 1, 0, 1, 1, |0, 1, 1, 1, 1, 1, 1, 0, |1, 1, 0, 0, 1, 0, 1, 1, |1, 1, 0, 0, 0, 0, 0, 1, |0, 1, 1, 0, 0, 0, 0, 0, |1, 1, 0, 0, 0, 1, 1, 1, |0, 1, 0, 1, 1, 1, 1, 1, |1, 1, 1, 1, 1, 0, 1, 1, |0, 0, 1, 1, 1, 0, 1, 1, |1, 1, 1, 1, 1, 1, 1, 1, |0, 1, 1, 1, 1, 1, 1, 1, |1, 1, 1, 1, 1, 1, 1, 1, |1, 1, 1, 0, 0, 0, 0, 0, |0, 0, 1, 1, 0, 1, 1, 1, |0, 0, 1, 1, 1, 1, 1, 1, |0, 0, 0, 1, 1, 1, 0, 1, |1, 1, 0, 1, 0, 1, 1, 1, |1, 1, 0, 0, 0, 1, 1, 1, |1, 1, 1, 1, 1, 1, 1, 1, |1, 1, 1, 1, 1, 1, 1, 1, |0, 0, 0, 1, 1, 1, 0, 1, |1, 1, 1, 1, 0, 0, 0, 0, |0, 0, 0, 1, 1, 1, 1, 0, |0, 1, 1, 1, 1, 1, 1, 0, |1, 1, 1, 1, 1, 1, 0, 0, |1, 1, 0, 1, 0, 1, 1, 1, |0, 1, 0, 0, 1, 1, 0, 0, |0, 0, 1, 1, 1, 1, 1, 1, |1, 1, 1, 1, 1, 1, 1, 1|];
StudentsProgramm = [2, 1, 2, 1, 2, 1, 1, 1, 1, 1];
StudentsDegree = [2, 2, 2, 2, 2, 1, 1, 2, 2, 1];
StudentsSupervisorId = [37, 41, 33, 24, 33, 2, 39, 16, 41, 27];
StudentsCourseIds = [{1, 2, 3, 4, 5, 6, 7}, {1, 2, 3, 4, 5, 6, 7}, {1, 2, 3, 4, 5, 6, 7}, {1, 2, 3, 4, 5, 6, 7}, {1, 2, 3, 4, 5, 6, 7}, {1, 2, 4, 5, 6, 7}, {1, 2, 3, 4, 6, 7}, {1, 2, 3, 4, 5, 6, 7}, {1, 2, 3, 4, 5, 6, 7}, {2, 3, 4, 5, 6, 7}];
StudentsAvailability = [|0, 0, 0, 1, 0, 1, 1, 1, |0, 1, 1, 1, 1, 1, 1, 1, |0, 0, 1, 0, 1, 1, 1, 1, |0, 1, 1, 1, 1, 1, 1, 1, |0, 0, 0, 1, 1, 1, 1, 1, |0, 1, 1, 1, 1, 1, 1, 1, |1, 1, 1, 1, 1, 0, 1, 1, |0, 1, 1, 1, 0, 1, 1, 1, |0, 0, 0, 1, 0, 0, 0, 1, |1, 1, 1, 1, 1, 1, 1, 1|];
TheoryticalMinCard = [0, 0, 0, 0, 0, 0, 1, 0, 0, 0];
CoursesInstructorIds = [{1, 2, 3, 5, 6, 7, 9, 10, 12, 14, 15, 16, 18, 24, 26, 27, 28, 29, 30, 33, 34, 42, 45, 46, 49, 50, 51, 53, 54, 55, 57, 59, 60}, {35, 41, 45, 55}, {3, 4, 5, 6, 7, 8, 9, 10, 11, 12, 16, 17, 18, 19, 20, 22, 26, 29, 32, 33, 34, 36, 37, 38, 40, 41, 42, 45, 46, 48, 49, 50, 51, 54, 55, 59}, {1, 3, 4, 7, 12, 17, 27, 29, 32, 36, 40, 48, 50}, {1, 2, 4, 5, 6, 8, 10, 11, 12, 21, 24, 25, 26, 28, 29, 34, 36, 37, 40, 41, 44, 45, 50, 54, 56, 57, 58, 59}, {6, 10, 20, 21, 22, 25, 28, 37, 40, 52, 59}, {3, 5, 7, 14, 15, 20, 22, 23, 25, 26, 30, 32, 37, 47, 54, 57, 60}];
RolesDemands = [17];
RolesContinuity = [];
ExamLen = [1, 1, 1, 1, 1, 1, 1, 1, 1, 1];
LunchTsMinLen = 0;
LunchStarts = [13..22];
SupervisorAvailable = 0;
OptimalLunchLenght = [0, 1];
OptimalStartTs = [0, 0];
OptimalFinishTs = [0, 40];
MinimizeRooms = 500;
RolesSoftContinuity = [|1|0|];
SameDegreeInRoom = 10;
Mergeability = 1;
